data/MCDM/NO_CORR/GEN_FROM_60/19_ITEMS_1000_GEN/K5019W14.KNP.mps
NAME          BLANK   
ROWS
 N  OBJROW
 L  R0000000
COLUMNS
    C0000000  OBJROW     -412.         R0000000  929.        
    C0000001  OBJROW     -302.         R0000000  9.          
    C0000002  OBJROW     -229.         R0000000  842.        
    C0000003  OBJROW     -531.         R0000000  147.        
    C0000004  OBJROW     -28.          R0000000  632.        
    C0000005  OBJROW     -743.         R0000000  235.        
    C0000006  OBJROW     -7.           R0000000  723.        
    C0000007  OBJROW     -505.         R0000000  316.        
    C0000008  OBJROW     -331.         R0000000  944.        
    C0000009  OBJROW     -455.         R0000000  75.         
    C0000010  OBJROW     -420.         R0000000  240.        
    C0000011  OBJROW     -847.         R0000000  67.         
    C0000012  OBJROW     -315.         R0000000  14.         
    C0000013  OBJROW     -518.         R0000000  723.        
    C0000014  OBJROW     -308.         R0000000  651.        
    C0000015  OBJROW     -163.         R0000000  70.         
    C0000016  OBJROW     -888.         R0000000  603.        
    C0000017  OBJROW     -694.         R0000000  820.        
    C0000018  OBJROW     -856.         R0000000  506.        
RHS
    RHS       R0000000  14110.      
BOUNDS
 BV BOUND     C0000000  1.          
 BV BOUND     C0000001  1.          
 BV BOUND     C0000002  1.          
 BV BOUND     C0000003  1.          
 BV BOUND     C0000004  1.          
 BV BOUND     C0000005  1.          
 BV BOUND     C0000006  1.          
 BV BOUND     C0000007  1.          
 BV BOUND     C0000008  1.          
 BV BOUND     C0000009  1.          
 BV BOUND     C0000010  1.          
 BV BOUND     C0000011  1.          
 BV BOUND     C0000012  1.          
 BV BOUND     C0000013  1.          
 BV BOUND     C0000014  1.          
 BV BOUND     C0000015  1.          
 BV BOUND     C0000016  1.          
 BV BOUND     C0000017  1.          
 BV BOUND     C0000018  1.          
ENDATA
