data/MCDM/NO_CORR/GEN_FROM_60/19_ITEMS_1000_GEN/K5019W14.KNP.txt
N 19
M 20
LC 19
LC 20
LC 21
LC 22
LC 23
LC 24
LC 25
LC 26
LC 27
LC 28
LC 29
LC 30
LC 31
LC 32
LC 33
LC 34
LC 35
LC 36
LC 37
LR 1
LR 2
LR 3
LR 4
LR 5
LR 6
LR 7
LR 8
LR 9
LR 10
LR 11
LR 12
LR 13
LR 14
LR 15
LR 16
LR 17
LR 18
LR 19
LR 20
LO -412
LO -302
LO -229
LO -531
LO -28
LO -743
LO -7
LO -505
LO -331
LO -455
LO -420
LO -847
LO -315
LO -518
LO -308
LO -163
LO -888
LO -694
LO -856
OS 1
IC 232
IC 851
IC 80
IC 320
IC 706
IC 599
IC 95
IC 635
IC 118
IC 285
IC 804
IC 526
IC 645
IC 12
IC 50
IC 980
IC 279
IC 643
IC 212
IB 4036
